DATASET = "thpack6";
INSTANCE = "038";

WIDTH = 233;
HEIGHT = 220;
LENGTH = 587;

NO_OF_SHAPES = 15;
size = [|
  104,94,50 |
  102,87,36 |
  115,42,33 |
  61,58,32 |
  70,62,48 |
  91,79,78 |
  90,57,53 |
  78,68,25 |
  77,44,39 |
  97,89,56 |
  58,38,26 |
  64,44,33 |
  57,38,25 |
  70,65,28 |
  93,73,61 |
|];

verticality = [|
  0,1,1 |
  0,0,1 |
  0,1,1 |
  1,1,1 |
  1,1,1 |
  1,1,1 |
  1,1,1 |
  0,0,1 |
  1,1,1 |
  1,1,1 |
  0,1,1 |
  1,1,1 |
  0,1,1 |
  0,0,1 |
  1,1,1 |
|];

box_count = [
  6,
  10,
  14,
  7,
  9,
  7,
  10,
  10,
  5,
  10,
  7,
  8,
  13,
  9,
  6,
];
